experiments/eusolverbv/2/DirectTrainGenes/0000001001010100110000111101110010001000101/319_.sl

(set-logic BV)

(define-fun shr1 ((x (BitVec 64))) (BitVec 64) (bvlshr x #x0000000000000001))
(define-fun shr4 ((x (BitVec 64))) (BitVec 64) (bvlshr x #x0000000000000004))
(define-fun shr16 ((x (BitVec 64))) (BitVec 64) (bvlshr x #x0000000000000010))
(define-fun shl1 ((x (BitVec 64))) (BitVec 64) (bvshl x #x0000000000000001))
(define-fun if0 ((x (BitVec 64)) (y (BitVec 64)) (z (BitVec 64))) (BitVec 64) (ite (= x #x0000000000000001) y z))
(define-fun func23  ((A (BitVec 64)) (B (BitVec 64)) (C (BitVec 64)) (D (BitVec 64)) ) (BitVec 64) (bvand (bvlshr (bvlshr C  D ) B ) A ))
(define-fun func24  ((A (BitVec 64)) (B (BitVec 64)) (C (BitVec 64)) ) (BitVec 64) (bvand (bvlshr B  C ) A ))
(define-fun func25  ((A (BitVec 64)) (B (BitVec 64)) ) (BitVec 64) (bvand (bvlshr B  #x0000000000000001 ) A ))
(define-fun func26  ((A (BitVec 64)) (B (BitVec 64)) ) (BitVec 64) (bvand (bvlshr B  #x0000000000000010 ) A ))
(define-fun func27  ((A (BitVec 64)) (B (BitVec 64)) ) (BitVec 64) (bvand (bvlshr B  #x0000000000000004 ) A ))
(define-fun func28  ((A (BitVec 64)) (B (BitVec 64)) ) (BitVec 64) (bvand (bvlshr A  B ) #x0000000000000001 ))
(define-fun func29  ((A (BitVec 64)) ) (BitVec 64) (bvand A  #x0000000000000001 ))
(define-fun func30  ((A (BitVec 64)) (B (BitVec 64)) (C (BitVec 64)) (D (BitVec 64)) ) (BitVec 64) (bvlshr (bvlshr (bvlshr C  D ) B ) A ))
(define-fun func31  ((A (BitVec 64)) (B (BitVec 64)) (C (BitVec 64)) ) (BitVec 64) (bvlshr (bvlshr (bvlshr C  #x0000000000000010 ) B ) A ))
(define-fun func32  ((A (BitVec 64)) (B (BitVec 64)) (C (BitVec 64)) ) (BitVec 64) (bvlshr (bvlshr B  C ) A ))
(define-fun func33  ((A (BitVec 64)) (B (BitVec 64)) ) (BitVec 64) (bvlshr (bvlshr B  #x0000000000000010 ) A ))
(define-fun func34  ((A (BitVec 64)) (B (BitVec 64)) ) (BitVec 64) (bvlshr (bvlshr B  #x0000000000000004 ) A ))
(define-fun func35  ((A (BitVec 64)) (B (BitVec 64)) ) (BitVec 64) (bvlshr (bvlshr B  #x0000000000000001 ) A ))
(define-fun func36  ((A (BitVec 64)) (B (BitVec 64)) ) (BitVec 64) (bvlshr (bvlshr A  B ) #x0000000000000001 ))
(define-fun func37  ((A (BitVec 64)) (B (BitVec 64)) ) (BitVec 64) (bvlshr (bvlshr A  B ) #x0000000000000004 ))
(define-fun func38  ((A (BitVec 64)) (B (BitVec 64)) ) (BitVec 64) (bvlshr A  B ))
(define-fun func39  ((A (BitVec 64)) (B (BitVec 64)) (C (BitVec 64)) ) (BitVec 64) (bvlshr (bvshl B  C ) A ))
(define-fun func40  ((A (BitVec 64)) (B (BitVec 64)) ) (BitVec 64) (bvlshr (bvshl B  #x0000000000000001 ) A ))
(define-fun func41  ((A (BitVec 64)) (B (BitVec 64)) (C (BitVec 64)) ) (BitVec 64) (bvlshr (bvadd B  C ) A ))
(define-fun func42  ((A (BitVec 64)) (B (BitVec 64)) ) (BitVec 64) (bvlshr (bvnot B ) A ))
(define-fun func43  ((A (BitVec 64)) ) (BitVec 64) (bvlshr (bvnot A ) #x0000000000000010 ))
(define-fun func44  ((A (BitVec 64)) (B (BitVec 64)) (C (BitVec 64)) ) (BitVec 64) (bvor (bvlshr B  C ) A ))
(define-fun func45  ((A (BitVec 64)) ) (BitVec 64) (bvor A  #x0000000000000001 ))
(define-fun func46  ((A (BitVec 64)) (B (BitVec 64)) (C (BitVec 64)) ) (BitVec 64) (bvshl (bvlshr B  C ) A ))
(define-fun func47  ((A (BitVec 64)) (B (BitVec 64)) ) (BitVec 64) (bvshl (bvlshr B  #x0000000000000001 ) A ))
(define-fun func48  ((A (BitVec 64)) (B (BitVec 64)) ) (BitVec 64) (bvshl (bvlshr A  B ) #x0000000000000001 ))
(define-fun func50  ((A (BitVec 64)) (B (BitVec 64)) ) (BitVec 64) (bvshl (bvnot B ) A ))
(define-fun func51  ((A (BitVec 64)) ) (BitVec 64) (bvshl (bvnot A ) #x0000000000000001 ))
(define-fun func52  ((A (BitVec 64)) (B (BitVec 64)) (C (BitVec 64)) ) (BitVec 64) (bvadd (bvlshr B  C ) A ))
(define-fun func53  ((A (BitVec 64)) ) (BitVec 64) (bvadd A  #x0000000000000001 ))
(define-fun func54  ((A (BitVec 64)) (B (BitVec 64)) (C (BitVec 64)) ) (BitVec 64) (bvadd (bvshl B  C ) A ))
(define-fun func55  ((A (BitVec 64)) (B (BitVec 64)) ) (BitVec 64) (bvadd (bvshl B  #x0000000000000001 ) A ))
(define-fun func56  ((A (BitVec 64)) ) (BitVec 64) (bvnot (bvshl A  #x0000000000000001 )))
(synth-fun f ( (x (BitVec 64))) (BitVec 64)
(
(Start (BitVec 64) (
   #x0000000000000000
   #x0000000000000001
   x
   (func29 Start)
   (func32 Start Start Start)
   (func34 Start Start)
   (func36 Start Start)
   (func39 Start Start Start)
   (func40 Start Start)
   (func45 Start)
   (func46 Start Start Start)
   (func47 Start Start)
   (func48 Start Start)
   (func51 Start)
   (func52 Start Start Start)
   (func53 Start)
   (func56 Start)
   (bvnot Start)
   (shl1 Start)
   (shr1 Start)
   (shr16 Start)
   (bvand Start Start)
   (bvor Start Start)
   (bvadd Start Start)
   (if0 Start Start Start)
))
))
(constraint (= (f #x92ec576d8234727c) #x049762bb6c11a393))
(constraint (= (f #xf10631970e763b18) #x0788318cb873b1d9))
(constraint (= (f #x27afea0cecf0dbfa) #x013d7f50676786df))
(constraint (= (f #x65da88bb5a9c3266) #x032ed445dad4e193))
(constraint (= (f #x93845907320875ac) #x049c22c8399043ad))
(constraint (= (f #x9084b0d24b069434) #x0000000000000001))
(constraint (= (f #x021c38040940301c) #x0000000000000001))
(constraint (= (f #x609208094942d0f0) #x0000000000000001))
(constraint (= (f #x0d2c0b40a1425094) #x0000000000000001))
(constraint (= (f #x1e086805a04a583c) #x0000000000000001))
(constraint (= (f #x0000000000000000) #x0000000000000000))
(constraint (= (f #x860596aaf0e6500b) #x0000000000000000))
(constraint (= (f #x2b7e78f877ee3e95) #x0000000000000000))
(constraint (= (f #xb01dae8fc5d8cec3) #x0000000000000000))
(constraint (= (f #xd577f9f14f2ee8eb) #x0000000000000000))
(constraint (= (f #xb02c32d9db189339) #x0000000000000000))
(constraint (= (f #x64bf751f2377a9b8) #x0325fba8f91bbd4d))
(constraint (= (f #xb11dedace2c9e05c) #x0588ef6d67164f03))
(constraint (= (f #x6185c4576c69082a) #x030c2e22bb634841))
(constraint (= (f #x543645b70ac55d48) #x02a1b22db8562aeb))
(constraint (= (f #x29ab56a03b2de99c) #x014d5ab501d96f4d))
(constraint (= (f #x9430068690e120d2) #x0000000000000001))
(constraint (= (f #x070a1861870942d2) #x0000000000000001))
(constraint (= (f #x24290610a5a14a58) #x0000000000000001))
(constraint (= (f #x0586942c12050030) #x0000000000000001))
(constraint (= (f #x04a4120f0387843c) #x0000000000000001))
(constraint (= (f #xe5e324825e393353) #xe5e324825e393352))
(constraint (= (f #x6d11cb56c891f2fb) #x6d11cb56c891f2fa))
(constraint (= (f #x1ff2dfda5e678c0b) #x1ff2dfda5e678c0a))
(constraint (= (f #x6072a92b4d614a0f) #x6072a92b4d614a0e))
(constraint (= (f #x6fcc39143c336211) #x6fcc39143c336210))
(check-synth)
