experiments/eusolverbv/2/DirectTrainGenes/0000001001010100110000111101110010001000101/319_.out
(define-fun f ((x (BitVec 64))) (BitVec 64)
     (if0 (func29 x) (if0 (func29 (shr16 x)) (func47 #x0000000000000001 x) #x0000000000000000) (if0 (func45 x) (func34 #x0000000000000001 x) (if0 (func29 (func34 #x0000000000000000 x)) (if0 (func29 (func34 #x0000000000000001 x)) (if0 (func29 (shr1 x)) (func34 #x0000000000000001 x) (if0 (func29 (shr1 (shr16 x))) (if0 (func29 (shr16 x)) (if0 (func29 (func36 x #x0000000000000001)) #x0000000000000001 (func34 #x0000000000000001 x)) #x0000000000000001) (if0 (func29 (shr16 x)) #x0000000000000001 (func34 #x0000000000000001 x)))) (if0 (func29 (shr1 x)) #x0000000000000001 (if0 (func29 (shr16 x)) (if0 (func29 (func36 x #x0000000000000001)) (func45 (func34 #x0000000000000001 x)) #x0000000000000001) (if0 (func29 (func36 x #x0000000000000001)) #x0000000000000001 (func45 (func34 #x0000000000000001 x)))))) (func45 (func34 #x0000000000000001 x))))))
2.552214190363884
